Route 1: 0 75 40 30 72 88 71 25 12 45 55 0
Route 2: 0 54 41 51 22 65 53 47 21 0
Route 3: 0 18 68 11 85 16 35 32 5 9 15 0
Route 4: 0 79 62 4 97 60 83 70 0
Route 5: 0 100 86 19 46 52 49 0
Route 6: 0 82 61 7 24 36 80 0
Route 7: 0 1 13 98 6 59 29 95 58 14 2 76 92 0
Route 8: 0 81 3 8 78 23 37 44 56 96 57 0
Route 9: 0 94 27 84 17 69 38 63 33 0
Route 10: 0 90 31 50 74 20 91 77 26 64 10 93 0
Route 11: 0 67 48 66 73 34 89 0
Route 12: 0 87 39 28 42 43 99 0
